Selected objective sense:  MINIMIZE
Selected objective  name:  OBJ
Selected RHS        name:  RHS1
Selected bound      name:  BND1
CPXPARAM_Preprocessing_Presolve                  0
CPXPARAM_LPMethod                                4
CPXPARAM_Threads                                 1
CPXPARAM_SolutionType                            2
CPXPARAM_TimeLimit                               3600
Tried aggregator 0 times.
Reduced presolve eliminated 76 rows and 76 columns.
Reduced LP has 8140 rows, 48592 columns, and 1093937 nonzeros.
Presolve time = 0.23 sec. (129.78 ticks)
Parallel mode: none, using 1 thread for barrier
Number of nonzeros in lower triangle of A*A' = 184610
Using Approximate Minimum Degree ordering
Total time for automatic ordering = 0.03 sec. (41.36 ticks)
Summary statistics for Cholesky factor:
  Rows in Factor            = 8140
  Integer space required    = 191922
  Total non-zeros in factor = 193003
  Total FP ops to factor    = 4642311
 Itn      Primal Obj        Dual Obj  Prim Inf Upper Inf  Dual Inf Inf Ratio
   0   2.2987325e+08  -6.1359825e+06  3.97e+08  0.00e+00  1.94e+06  1.00e+00
   1   3.7846244e+07  -1.7206141e+06  5.69e+07  1.92e-12  1.22e+06  6.49e-03
   2   1.3761158e+06  -1.9208165e+06  4.72e+06  7.78e-12  6.58e+03  8.29e-02
   3   5.9772269e+04  -8.0295428e+05  4.27e+05  5.81e-12  2.60e+03  1.69e-01
   4   1.6447551e+04  -1.8687366e+05  4.61e+04  9.21e-12  6.33e+02  4.73e-01
   5   1.1997007e+04  -9.9713385e+03  4.49e+02  7.34e-12  6.99e+01  3.69e+00
   6   1.1879564e+04   5.3638505e+03  1.12e+02  5.59e-12  2.07e+01  8.12e+00
   7   1.1809827e+04   1.0409665e+04  4.77e+01  2.18e-11  4.37e+00  3.69e+01
   8   1.1735875e+04   1.1309201e+04  2.87e+01  9.92e-12  1.13e+00  1.35e+02
   9   1.1691597e+04   1.1502264e+04  1.72e+01  4.99e-12  4.42e-01  3.21e+02
  10   1.1660492e+04   1.1562804e+04  1.00e+01  6.77e-12  2.09e-01  6.30e+02
  11   1.1650337e+04   1.1592645e+04  7.64e+00  1.47e-11  9.49e-02  1.26e+03
  12   1.1644772e+04   1.1606986e+04  6.28e+00  2.21e-11  4.34e-02  2.32e+03
  13   1.1636512e+04   1.1612374e+04  4.33e+00  1.41e-11  2.27e-02  3.59e+03
  14   1.1636395e+04   1.1614144e+04  4.29e+00  1.12e-11  1.75e-02  4.33e+03
  15   1.1636350e+04   1.1614304e+04  4.28e+00  1.28e-11  1.70e-02  4.41e+03
  16   1.1635479e+04   1.1614703e+04  4.06e+00  1.32e-11  1.57e-02  4.65e+03
  17   1.1635266e+04   1.1617211e+04  4.01e+00  1.83e-11  8.06e-03  6.97e+03
  18   1.1633257e+04   1.1617408e+04  3.50e+00  1.07e-11  7.32e-03  7.30e+03
  19   1.1632292e+04   1.1619208e+04  3.25e+00  1.43e-11  1.83e-03  1.25e+04
  20   1.1630579e+04   1.1619582e+04  2.81e+00  1.07e-11  5.27e-04  1.51e+04
  21   1.1626890e+04   1.1620302e+04  1.76e+00  9.14e-12  1.84e-04  2.42e+04
  22   1.1626667e+04   1.1620598e+04  1.70e+00  2.06e-11  4.61e-05  3.03e+04
  23   1.1624971e+04   1.1620966e+04  1.18e+00  1.07e-11  1.41e-05  5.51e+04
  24   1.1624733e+04   1.1620959e+04  1.11e+00  1.19e-11  3.53e-06  4.99e+04
  25   1.1622192e+04   1.1621016e+04  3.18e-01  1.84e-11  2.55e-06  5.72e+04
  26   1.1622144e+04   1.1621203e+04  3.00e-01  1.79e-11  1.17e-06  1.10e+05
  27   1.1622137e+04   1.1621215e+04  2.97e-01  2.20e-11  1.05e-06  1.17e+05
  28   1.1622041e+04   1.1621218e+04  2.61e-01  2.70e-11  1.03e-06  1.20e+05
  29   1.1622034e+04   1.1621280e+04  2.58e-01  2.21e-11  4.73e-07  1.89e+05
  30   1.1622027e+04   1.1621286e+04  2.55e-01  3.42e-11  3.84e-07  2.04e+05
  31   1.1622006e+04   1.1621313e+04  2.48e-01  3.65e-11  1.91e-07  3.04e+05
  32   1.1621907e+04   1.1621322e+04  2.10e-01  3.82e-11  1.47e-07  3.56e+05
  33   1.1621877e+04   1.1621324e+04  1.99e-01  3.88e-11  3.68e-08  3.44e+05
  34   1.1621769e+04   1.1621326e+04  1.60e-01  2.54e-11  2.33e-08  3.54e+05
  35   1.1621749e+04   1.1621339e+04  1.52e-01  3.27e-11  5.85e-09  4.55e+05
  36   1.1621653e+04   1.1621341e+04  1.16e-01  3.72e-11  3.45e-09  4.74e+05
  37   1.1621607e+04   1.1621345e+04  9.82e-02  5.38e-11  2.49e-09  5.27e+05
  38   1.1621605e+04   1.1621351e+04  9.75e-02  3.34e-11  1.48e-09  6.36e+05
  39   1.1621594e+04   1.1621352e+04  9.30e-02  3.13e-11  1.35e-09  6.54e+05
  40   1.1621565e+04   1.1621355e+04  8.16e-02  3.98e-11  8.55e-10  7.29e+05
  41   1.1621561e+04   1.1621358e+04  7.98e-02  5.31e-11  6.64e-10  7.98e+05
  42   1.1621559e+04   1.1621362e+04  7.92e-02  3.35e-11  1.77e-10  9.95e+05
  43   1.1621512e+04   1.1621362e+04  5.98e-02  1.35e-11  1.42e-10  1.00e+06
  44   1.1621510e+04   1.1621367e+04  5.92e-02  2.32e-11  1.10e-10  1.34e+06
  45   1.1621498e+04   1.1621368e+04  5.40e-02  1.37e-11  7.60e-11  1.55e+06
  46   1.1621462e+04   1.1621370e+04  3.85e-02  1.10e-11  1.03e-10  1.81e+06
  47   1.1621457e+04   1.1621372e+04  3.62e-02  1.51e-11  7.78e-11  2.20e+06
  48   1.1621455e+04   1.1621372e+04  3.54e-02  1.60e-11  5.89e-11  2.24e+06
  49   1.1621455e+04   1.1621372e+04  3.53e-02  1.86e-11  8.31e-11  2.25e+06
  50   1.1621453e+04   1.1621372e+04  3.47e-02  2.22e-11  9.83e-11  2.27e+06
  51   1.1621452e+04   1.1621372e+04  3.44e-02  2.50e-11  8.72e-11  2.30e+06
  52   1.1621452e+04   1.1621372e+04  3.42e-02  4.95e-11  1.21e-10  2.31e+06
  53   1.1621451e+04   1.1621373e+04  3.36e-02  5.90e-11  1.17e-10  2.38e+06
  54   1.1621448e+04   1.1621373e+04  3.24e-02  6.65e-11  1.65e-10  2.49e+06
  55   1.1621415e+04   1.1621373e+04  1.81e-02  3.56e-11  1.15e-10  2.62e+06
  56   1.1621412e+04   1.1621375e+04  1.64e-02  4.00e-11  7.34e-11  3.47e+06
  57   1.1621407e+04   1.1621376e+04  1.41e-02  3.86e-11  7.28e-11  5.23e+06
  58   1.1621403e+04   1.1621376e+04  1.23e-02  5.30e-11  6.07e-11  5.43e+06
  59   1.1621400e+04   1.1621377e+04  1.07e-02  4.93e-11  6.25e-11  6.46e+06
  60   1.1621398e+04   1.1621377e+04  1.01e-02  4.41e-11  6.75e-11  8.15e+06
  61   1.1621398e+04   1.1621377e+04  9.74e-03  6.47e-11  5.21e-11  8.63e+06
  62   1.1621394e+04   1.1621378e+04  7.90e-03  4.18e-11  4.23e-11  9.45e+06
  63   1.1621388e+04   1.1621378e+04  4.74e-03  1.40e-11  7.49e-11  1.25e+07
  64   1.1621387e+04   1.1621378e+04  4.54e-03  3.50e-11  5.61e-11  1.28e+07
  65   1.1621387e+04   1.1621378e+04  4.35e-03  4.59e-11  7.33e-11  1.31e+07
  66   1.1621387e+04   1.1621378e+04  4.14e-03  5.57e-11  1.06e-10  1.49e+07
  67   1.1621384e+04   1.1621379e+04  2.83e-03  2.50e-11  1.17e-10  2.03e+07
  68   1.1621384e+04   1.1621379e+04  2.58e-03  1.80e-11  6.74e-11  2.49e+07
  69   1.1621383e+04   1.1621379e+04  2.45e-03  2.72e-11  8.37e-11  2.71e+07
  70   1.1621383e+04   1.1621379e+04  2.11e-03  2.15e-11  4.79e-11  3.24e+07
  71   1.1621383e+04   1.1621379e+04  2.09e-03  9.06e-12  7.20e-11  3.57e+07
  72   1.1621381e+04   1.1621379e+04  1.25e-03  8.34e-12  1.45e-10  4.76e+07
  73   1.1621381e+04   1.1621379e+04  1.08e-03  8.24e-12  1.15e-10  5.27e+07
  74   1.1621381e+04   1.1621379e+04  9.67e-04  9.06e-12  5.51e-11  9.10e+07
  75   1.1621381e+04   1.1621379e+04  9.21e-04  2.36e-11  5.23e-11  9.32e+07
  76   1.1621380e+04   1.1621379e+04  6.01e-04  4.74e-12  5.04e-11  1.18e+08
  77   1.1621380e+04   1.1621379e+04  5.51e-04  1.15e-11  7.57e-11  1.54e+08
  78   1.1621380e+04   1.1621379e+04  7.83e-03  2.65e-11  1.04e-08  2.35e+08
  79   1.1621379e+04   1.1621379e+04  1.96e-03  1.31e-11  6.25e-09  2.67e+08
Barrier time = 4.27 sec. (7676.66 ticks)

Total time on 1 threads = 4.27 sec. (7676.66 ticks)
Solve time: 4.273100209
Barrier iterations: 79
